This is Ipopt version 3.10.0, running with linear solver ma27.

Number of nonzeros in equality constraint Jacobian...:        2
Number of nonzeros in inequality constraint Jacobian.:        4
Number of nonzeros in Lagrangian Hessian.............:        0

Total number of variables............................:        2
                     variables with only lower bounds:        0
                variables with lower and upper bounds:        2
                     variables with only upper bounds:        0
Total number of equality constraints.................:        1
Total number of inequality constraints...............:        2
        inequality constraints with only lower bounds:        0
   inequality constraints with lower and upper bounds:        0
        inequality constraints with only upper bounds:        2

iter    objective    inf_pr   inf_du lg(mu)  ||d||  lg(rg) alpha_du alpha_pr  ls
   0  9.6101500e+04 4.66e-01 3.00e+02   0.0 0.00e+00    -  0.00e+00 0.00e+00   0
   1  9.5495185e+04 4.63e-01 4.78e+03   2.0 3.55e+02    -  4.42e-01 4.54e-03f  1
   2  1.0454680e+05 2.62e-01 2.67e+05   1.8 1.84e+02    -  7.54e-03 4.27e-01h  1
   3  1.2792125e+05 2.28e-02 2.22e+02   2.0 1.02e+02    -  1.00e+00 1.00e+00h  1
   4  1.3082924e+05 1.15e-03 4.81e+01   0.6 5.49e+00    -  9.90e-01 9.73e-01h  1
   5  1.3059003e+05 2.56e-04 4.72e+00  -1.0 3.99e-01    -  9.99e-01 1.00e+00f  1
   6  1.3062490e+05 1.80e-05 5.89e-01  -2.6 5.54e-02    -  1.00e+00 9.94e-01h  1
   7  1.3062420e+05 1.96e-06 6.97e-05  -4.6 5.16e-03    -  1.00e+00 1.00e+00f  1

Number of Iterations....: 7

                                   (scaled)                 (unscaled)
Objective...............:   1.3062419761095900e+05    1.3062419761095900e+05
Dual infeasibility......:   6.9680758226151783e-05    6.9680758226151783e-05
Constraint violation....:   1.9648630691166091e-06    1.9648630691166091e-06
Complementarity.........:   2.3348678506789633e-05    2.3348678506789633e-05
Overall NLP error.......:   1.9648630691166091e-06    6.9680758226151783e-05


Number of objective function evaluations             = 8
Number of objective gradient evaluations             = 8
Number of equality constraint evaluations            = 8
Number of inequality constraint evaluations          = 8
Number of equality constraint Jacobian evaluations   = 8
Number of inequality constraint Jacobian evaluations = 8
Number of Lagrangian Hessian evaluations             = 0
Total CPU secs in IPOPT (w/o function evaluations)   =      0.007
Total CPU secs in NLP function evaluations           =      1.092

EXIT: Optimal Solution Found.
